p cnf 44 125
a 25 31 0
e 1 2 3 4 5 6 7 8 9 10 11 12 13 14 15 16 17 18 19 20 21 22 23 24 26 27 28 29 30 32 33 34 35 36 37 38 39 40 41 42 43 44 0
3 -1 0
3 2 0
1 -2 -3 0
7 -5 0
7 -6 0
5 6 -7 0
8 7 0
8 -2 0
-7 2 -8 0
9 -4 0
9 -8 0
4 8 -9 0
10 3 0
10 9 0
-3 -9 -10 0
11 -6 0
11 8 0
6 -8 -11 0
-12 -11 0
-12 -1 0
11 1 12 0
13 -10 0
13 -12 0
10 12 -13 0
-1 -5 -15 0
1 5 -15 0
-1 5 15 0
1 -5 15 0
-14 15 -16 0
14 -15 -16 0
-14 -15 16 0
14 15 16 0
17 2 0
17 14 0
-2 -14 -17 0
18 -7 0
18 -17 0
7 17 -18 0
-20 -14 0
-20 -19 0
14 19 20 0
5 -20 -21 0
-5 20 -21 0
5 20 21 0
-5 -20 21 0
-22 21 0
-22 -8 0
-21 8 22 0
18 -22 -23 0
-18 22 -23 0
18 22 23 0
-18 -22 23 0
24 16 0
24 23 0
-16 -23 -24 0
-25 13 0
-25 24 0
-13 -24 25 0
2 -19 -26 0
-2 19 -26 0
2 19 26 0
-2 -19 26 0
26 -1 -27 0
-26 1 -27 0
26 1 27 0
-26 -1 27 0
-28 11 -29 0
28 -11 -29 0
-28 -11 29 0
28 11 29 0
30 27 0
30 -29 0
-27 29 -30 0
-32 31 0
-32 -7 0
-31 7 32 0
-33 -1 -34 0
33 1 -34 0
-33 1 34 0
33 -1 34 0
-35 32 0
-35 -34 0
-32 34 35 0
36 -2 0
36 6 0
2 -6 -36 0
36 15 -37 0
-36 -15 -37 0
36 -15 37 0
-36 15 37 0
-38 35 0
-38 37 0
-35 -37 38 0
-1 -31 -39 0
1 31 -39 0
-1 31 39 0
1 -31 39 0
-26 -17 -40 0
26 17 -40 0
-26 17 40 0
26 -17 40 0
41 -39 0
41 -40 0
39 40 -41 0
-42 38 0
-42 -41 0
-38 41 42 0
-43 30 0
-43 -42 0
-30 42 43 0
44 25 0
44 43 0
-25 -43 -44 0
-41 -20 39 6 37 -44 29 0
-10 -36 -1 43 -40 6 19 -37 0
33 -1 -12 -18 38 -30 -24 -17 0
41 -6 1 29 31 -27 0
12 -1 3 32 -27 40 -43 0
-3 -23 -4 33 0
-16 24 38 -18 -35 0
-29 -14 -41 39 8 -30 16 0
21 36 5 -23 0
-8 -7 -14 30 6 9 -3 44 0
-26 25 -43 -44 29 0
44 0
